c n orig vars 8
p cnf 15 25
15 0
9 -7 0
9 -2 0
9 -4 0
-9 7 2 4 0
10 -1 0
10 -9 0
-10 1 9 0
-11 3 0
-11 2 0
-11 5 0
11 -3 -2 -5 0
12 -7 0
12 -4 0
12 -11 0
-12 7 4 11 0
-13 8 0
-13 12 0
13 -8 -12 0
14 -6 0
14 -13 0
-14 6 13 0
-15 14 0
-15 10 0
15 -14 -10 0
